unsat
( c0
  c1
  c10
  c11
  c110
  c111
  c113
  c114
  c119
  c12
  c121
  c128
  c129
  c13
  c14
  c140
  c15
  c16
  c17
  c18
  c19
  c2
  c20
  c201
  c21
  c219
  c22
  c23
  c24
  c25
  c26
  c27
  c28
  c29
  c3
  c30
  c31
  c32
  c4
  c410
  c44
  c447
  c45
  c46
  c47
  c471
  c473
  c48
  c49
  c5
  c50
  c51
  c52
  c527
  c53
  c530
  c54
  c548
  c55
  c552
  c56
  c560
  c57
  c58
  c59
  c6
  c60
  c61
  c62
  c63
  c64
  c65
  c7
  c8
  c88
  c89
  c9
  c90
  c91
  c92
  c93
  c94
  c95
  c96
  c97
  c98 )
